100
128
44
63
40
21
5
46
50
49
16
3
50
53
45
16
27
14
64
12
59
11
25
44
11
52
24
41
50
50
54
2
63
27
18
22
35
58
30
41
41
18
11
35
15
23
14
25
2
41
32
15
14
27
15
16
14
15
56
18
26
49
4
6
27
16
3
35
17
30
55
15
16
26
47
6
14
4
16
29
17
32
35
20
33
19
22
54
15
4
23
3
2
34
32
29
31
54
3
20
34
26